p cnf 10 50
9 -8 -3 0
-2 8 -3 0
4 8 -9 0
10 -8 4 0
-2 10 -8 0
-7 -8 -5 0
-2 4 7 0
6 4 -1 0
-2 -6 -3 0
3 5 10 0
10 -3 6 0
-7 5 8 0
-1 -5 6 0
-6 10 -8 0
-8 -10 9 0
4 -10 -5 0
-3 -4 1 0
-7 6 -3 0
5 -3 2 0
1 10 -3 0
6 -4 -1 0
-8 9 3 0
10 -1 6 0
-1 2 5 0
-9 1 -5 0
9 -6 -1 0
-8 5 -6 0
-1 2 -7 0
3 -5 -8 0
7 -9 10 0
7 10 1 0
1 -9 6 0
6 -3 -8 0
-3 8 -4 0
-7 -4 6 0
5 -3 1 0
-6 -2 -3 0
-2 -6 1 0
-6 -7 8 0
6 3 2 0
2 -7 -4 0
-5 9 6 0
1 -10 -4 0
7 -8 2 0
9 -4 7 0
2 -5 4 0
3 -10 2 0
8 -1 10 0
3 5 8 0
-2 1 -8 0